750
100 100
1 70 34
2 70 889
3 70 741
4 70 132
5 70 881
6 70 757
7 70 311
8 70 404
9 70 341
10 70 302
11 70 192
12 70 853
13 69 443
14 69 387
15 69 13
16 69 828
17 69 720
18 69 890
19 69 204
20 69 667
21 69 48
22 69 343
23 69 590
24 69 65
25 69 44
26 69 125
27 69 972
28 69 539
29 69 159
30 69 330
31 69 630
32 69 46
33 69 423
34 68 331
35 68 946
36 68 933
37 68 645
38 68 269
39 68 264
40 68 681
41 68 863
42 68 36
43 68 909
44 68 610
45 68 476
46 67 22
47 67 530
48 67 348
49 67 413
50 67 47
51 67 838
52 67 980
53 67 759
54 67 615
55 67 101
56 67 420
57 67 988
58 67 407
59 66 237
60 66 858
61 66 99
62 66 701
63 66 248
64 66 986
65 66 297
66 66 385
67 65 71
68 65 203
69 65 568
70 65 94
71 65 937
72 65 636
73 65 254
74 65 623
75 65 358
76 65 75
77 65 568
78 65 298
79 65 791
80 65 312
81 65 434
82 64 10
83 64 414
84 64 545
85 64 117
86 64 92
87 64 168
88 64 74
89 64 259
90 64 441
91 64 2
92 64 439
93 64 966
94 64 735
95 64 992
96 63 342
97 63 782
98 63 699
99 63 846
100 63 866
101 63 699
102 63 383
103 63 827
104 63 92
105 63 797
106 63 592
107 63 526
108 63 292
109 63 170
110 63 382
111 62 433
112 62 498
113 62 411
114 62 695
115 62 565
116 62 15
117 62 245
118 62 487
119 62 552
120 62 693
121 62 955
122 62 675
123 61 482
124 61 892
125 61 792
126 61 943
127 61 838
128 61 559
129 61 461
130 61 232
131 61 706
132 61 630
133 61 718
134 61 506
135 61 153
136 61 46
137 61 713
138 61 51
139 61 569
140 61 371
141 61 343
142 61 325
143 61 881
144 61 341
145 61 463
146 61 915
147 60 59
148 60 213
149 60 641
150 60 780
151 60 211
152 60 97
153 60 561
154 60 954
155 60 855
156 60 445
157 60 438
158 60 752
159 60 920
160 60 423
161 59 940
162 59 886
163 59 81
164 59 520
165 59 984
166 59 761
167 59 287
168 59 830
169 59 449
170 59 764
171 59 538
172 59 959
173 59 233
174 58 125
175 58 351
176 58 715
177 58 519
178 58 314
179 58 614
180 58 765
181 58 612
182 58 336
183 58 323
184 58 635
185 58 978
186 58 717
187 58 246
188 58 738
189 58 833
190 58 868
191 57 948
192 57 22
193 57 476
194 57 809
195 57 37
196 57 694
197 57 619
198 57 692
199 57 334
200 57 226
201 57 163
202 57 688
203 57 911
204 57 914
205 56 687
206 56 425
207 56 223
208 56 946
209 56 853
210 56 477
211 56 232
212 56 857
213 56 796
214 56 79
215 56 529
216 56 793
217 56 231
218 56 737
219 56 198
220 56 845
221 56 689
222 56 279
223 56 87
224 56 630
225 56 770
226 55 918
227 55 582
228 55 250
229 55 767
230 55 811
231 55 119
232 55 558
233 55 218
234 55 420
235 55 291
236 55 114
237 55 225
238 55 952
239 55 999
240 54 33
241 54 2
242 54 284
243 54 233
244 54 564
245 54 704
246 53 879
247 53 657
248 53 873
249 53 979
250 53 760
251 53 619
252 53 104
253 53 969
254 53 0
255 52 301
256 52 878
257 52 299
258 52 166
259 52 483
260 52 670
261 52 500
262 52 219
263 52 650
264 52 75
265 52 656
266 52 457
267 52 682
268 51 618
269 51 998
270 51 754
271 51 291
272 51 664
273 51 951
274 51 52
275 51 376
276 51 475
277 51 18
278 51 666
279 51 368
280 51 396
281 51 532
282 51 221
283 51 29
284 51 929
285 51 583
286 51 888
287 50 719
288 50 21
289 50 942
290 50 636
291 50 401
292 50 824
293 50 389
294 50 154
295 50 418
296 50 816
297 50 656
298 50 987
299 50 939
300 49 351
301 49 106
302 49 413
303 49 463
304 49 409
305 49 243
306 49 535
307 49 377
308 49 44
309 49 785
310 49 981
311 49 361
312 49 286
313 49 521
314 49 81
315 49 63
316 48 966
317 48 893
318 48 626
319 48 32
320 48 563
321 48 194
322 48 64
323 48 871
324 48 235
325 48 974
326 48 357
327 48 310
328 48 194
329 48 221
330 48 344
331 48 82
332 48 98
333 48 805
334 48 417
335 48 357
336 48 549
337 47 98
338 47 210
339 47 254
340 47 65
341 47 234
342 47 839
343 47 993
344 47 82
345 47 563
346 47 266
347 47 198
348 47 445
349 47 116
350 46 105
351 46 752
352 46 302
353 46 123
354 46 61
355 46 525
356 46 676
357 46 947
358 46 306
359 46 967
360 46 577
361 46 340
362 46 221
363 45 357
364 45 516
365 45 700
366 45 259
367 45 114
368 45 267
369 45 828
370 45 859
371 45 270
372 45 11
373 45 484
374 45 365
375 45 43
376 45 627
377 45 33
378 45 141
379 45 539
380 45 377
381 45 917
382 45 132
383 44 358
384 44 797
385 44 413
386 44 653
387 44 858
388 44 968
389 44 704
390 44 48
391 44 450
392 44 974
393 43 14
394 43 837
395 43 963
396 43 50
397 43 812
398 43 204
399 43 993
400 43 579
401 43 107
402 43 376
403 43 258
404 43 104
405 43 550
406 43 661
407 43 344
408 43 27
409 43 369
410 43 868
411 43 187
412 42 74
413 42 304
414 42 676
415 42 511
416 42 561
417 42 357
418 42 555
419 42 209
420 42 922
421 42 493
422 42 350
423 42 555
424 42 24
425 41 466
426 41 879
427 41 86
428 41 807
429 41 713
430 41 343
431 41 534
432 41 514
433 41 810
434 41 880
435 41 54
436 41 523
437 41 19
438 41 39
439 41 227
440 40 774
441 40 6
442 40 872
443 40 160
444 40 594
445 40 779
446 40 57
447 40 329
448 40 994
449 40 596
450 40 669
451 40 573
452 40 426
453 40 691
454 40 945
455 40 706
456 39 565
457 39 56
458 39 327
459 39 180
460 39 500
461 39 106
462 39 564
463 39 377
464 39 59
465 39 486
466 39 954
467 39 923
468 39 214
469 39 684
470 39 209
471 39 536
472 39 591
473 39 812
474 39 954
475 38 831
476 38 466
477 38 392
478 38 177
479 38 561
480 38 727
481 38 275
482 38 128
483 38 403
484 38 268
485 38 146
486 38 919
487 38 588
488 38 808
489 38 443
490 38 812
491 38 14
492 37 224
493 37 187
494 37 799
495 37 367
496 37 904
497 37 675
498 37 779
499 37 518
500 37 804
501 36 533
502 36 336
503 36 789
504 36 657
505 36 184
506 36 601
507 36 746
508 36 446
509 36 797
510 36 223
511 36 286
512 36 702
513 36 18
514 36 984
515 35 539
516 35 243
517 35 809
518 35 64
519 35 565
520 35 612
521 35 550
522 35 914
523 35 991
524 35 77
525 35 495
526 35 10
527 35 970
528 35 445
529 35 429
530 35 499
531 35 178
532 35 807
533 34 275
534 34 158
535 34 764
536 34 90
537 34 906
538 34 160
539 34 527
540 34 477
541 34 443
542 34 45
543 34 307
544 33 677
545 33 616
546 33 383
547 33 154
548 33 234
549 33 758
550 33 149
551 33 758
552 33 512
553 33 116
554 33 622
555 33 975
556 32 140
557 32 929
558 32 827
559 32 111
560 32 366
561 32 179
562 32 237
563 32 858
564 32 780
565 32 855
566 32 349
567 32 879
568 32 816
569 32 705
570 32 441
571 32 296
572 32 2
573 32 590
574 32 959
575 31 495
576 31 949
577 31 497
578 31 479
579 31 1000
580 31 848
581 31 208
582 31 513
583 31 493
584 31 846
585 31 891
586 31 941
587 30 733
588 30 171
589 30 279
590 30 858
591 30 561
592 30 901
593 30 171
594 29 406
595 29 989
596 29 979
597 29 646
598 29 815
599 29 427
600 29 887
601 29 280
602 29 824
603 29 620
604 29 923
605 29 686
606 29 384
607 29 822
608 29 834
609 29 798
610 29 104
611 29 614
612 28 356
613 28 302
614 28 667
615 28 383
616 28 840
617 28 269
618 28 275
619 28 796
620 28 111
621 28 347
622 28 857
623 28 566
624 28 436
625 28 685
626 28 288
627 28 507
628 28 720
629 28 950
630 28 284
631 28 759
632 28 493
633 27 414
634 27 994
635 27 726
636 27 654
637 27 880
638 27 461
639 27 741
640 27 693
641 27 561
642 27 972
643 27 69
644 27 86
645 26 530
646 26 928
647 26 371
648 26 754
649 26 157
650 26 788
651 26 581
652 26 848
653 26 423
654 26 656
655 26 580
656 26 300
657 26 665
658 26 762
659 26 534
660 26 911
661 26 535
662 26 241
663 25 715
664 25 845
665 25 101
666 25 298
667 25 385
668 25 94
669 25 432
670 25 276
671 25 596
672 25 551
673 25 767
674 25 577
675 25 509
676 25 770
677 25 50
678 25 871
679 25 94
680 25 872
681 24 511
682 24 754
683 24 827
684 24 960
685 24 261
686 24 188
687 23 690
688 23 632
689 23 408
690 23 740
691 23 408
692 23 684
693 23 197
694 23 454
695 23 313
696 22 105
697 22 456
698 22 287
699 22 861
700 22 985
701 22 458
702 22 587
703 22 606
704 22 883
705 22 142
706 22 537
707 22 329
708 22 613
709 22 764
710 22 244
711 22 243
712 22 177
713 22 79
714 22 691
715 22 681
716 22 369
717 22 18
718 21 858
719 21 91
720 21 274
721 21 205
722 21 500
723 21 45
724 21 649
725 21 552
726 21 601
727 21 6
728 21 527
729 21 158
730 21 609
731 21 97
732 21 308
733 21 862
734 21 441
735 20 127
736 20 924
737 20 422
738 20 643
739 20 346
740 20 162
741 20 441
742 20 820
743 20 859
744 20 71
745 20 775
746 20 395
747 20 578
748 20 118
749 20 477
750 20 462
